p cnf 240 272
-195 0
-150 0
-151 0
-60 0
-135 0
-136 0
-75 0
-90 0
-91 0
-45 0
-210 0
-211 0
-165 0
-120 0
-121 0
15 195 150 30 60 135 180 75 90 225 45 210 105 165 120 0
16 196 151 31 61 136 181 76 91 226 46 211 106 166 121 0
17 197 152 32 62 137 182 77 92 227 47 212 107 167 122 0
18 198 153 33 63 138 183 78 93 228 48 213 108 168 123 0
19 199 154 34 64 139 184 79 94 229 49 214 109 169 124 0
20 200 155 35 65 140 185 80 95 230 50 215 110 170 125 0
21 201 156 36 66 141 186 81 96 231 51 216 111 171 126 0
22 202 157 37 67 142 187 82 97 232 52 217 112 172 127 0
23 203 158 38 68 143 188 83 98 233 53 218 113 173 128 0
24 204 159 39 69 144 189 84 99 234 54 219 114 174 129 0
25 205 160 40 70 145 190 85 100 235 55 220 115 175 130 0
26 206 161 41 71 146 191 86 101 236 56 221 116 176 131 0
27 207 162 42 72 147 192 87 102 237 57 222 117 177 132 0
28 208 163 43 73 148 193 88 103 238 58 223 118 178 133 0
29 209 164 44 74 149 194 89 104 239 59 224 119 179 134 0
30 210 165 45 75 150 195 90 105 240 60 225 120 180 135 0
-15 -195 -150 -30 -60 -135 -180 -75 -90 -225 -45 -210 -105 -165 -120 0
-16 -196 -151 -31 -61 -136 -181 -76 -91 -226 -46 -211 -106 -166 -121 0
-17 -197 -152 -32 -62 -137 -182 -77 -92 -227 -47 -212 -107 -167 -122 0
-18 -198 -153 -33 -63 -138 -183 -78 -93 -228 -48 -213 -108 -168 -123 0
-19 -199 -154 -34 -64 -139 -184 -79 -94 -229 -49 -214 -109 -169 -124 0
-20 -200 -155 -35 -65 -140 -185 -80 -95 -230 -50 -215 -110 -170 -125 0
-21 -201 -156 -36 -66 -141 -186 -81 -96 -231 -51 -216 -111 -171 -126 0
-22 -202 -157 -37 -67 -142 -187 -82 -97 -232 -52 -217 -112 -172 -127 0
-23 -203 -158 -38 -68 -143 -188 -83 -98 -233 -53 -218 -113 -173 -128 0
-24 -204 -159 -39 -69 -144 -189 -84 -99 -234 -54 -219 -114 -174 -129 0
-25 -205 -160 -40 -70 -145 -190 -85 -100 -235 -55 -220 -115 -175 -130 0
-26 -206 -161 -41 -71 -146 -191 -86 -101 -236 -56 -221 -116 -176 -131 0
-27 -207 -162 -42 -72 -147 -192 -87 -102 -237 -57 -222 -117 -177 -132 0
-28 -208 -163 -43 -73 -148 -193 -88 -103 -238 -58 -223 -118 -178 -133 0
-29 -209 -164 -44 -74 -149 -194 -89 -104 -239 -59 -224 -119 -179 -134 0
-30 -210 -165 -45 -75 -150 -195 -90 -105 -240 -60 -225 -120 -180 -135 0
-15 -196 -136 -76 -226 -46 -106 -166 0
-195 -16 -136 -76 -226 -46 -106 -166 0
-150 -31 -61 -181 -91 -211 -121 0
-30 -151 -61 -181 -91 -211 -121 0
-60 -151 -31 -181 -91 -226 -46 -211 -106 -166 -121 0
-135 -16 -196 -76 -226 -46 -106 -166 0
-180 -151 -31 -61 -91 -226 -46 -211 -106 -166 -121 0
-75 -16 -196 -136 -226 -46 -106 -166 0
-90 -151 -31 -61 -181 -211 -121 0
-225 -16 -196 -61 -136 -181 -76 -46 -106 -166 -121 0
-45 -16 -196 -61 -136 -181 -76 -226 -106 -166 -121 0
-210 -151 -31 -61 -181 -91 -121 0
-105 -16 -196 -61 -136 -181 -76 -226 -46 -166 -121 0
-165 -16 -196 -61 -136 -181 -76 -226 -46 -106 -121 0
-120 -151 -31 -61 -181 -91 -226 -46 -211 -106 -166 0
-16 -197 -137 -77 -227 -47 -107 -167 0
-196 -17 -137 -77 -227 -47 -107 -167 0
-151 -32 -62 -182 -92 -212 -122 0
-31 -152 -62 -182 -92 -212 -122 0
-61 -152 -32 -182 -92 -227 -47 -212 -107 -167 -122 0
-136 -17 -197 -77 -227 -47 -107 -167 0
-181 -152 -32 -62 -92 -227 -47 -212 -107 -167 -122 0
-76 -17 -197 -137 -227 -47 -107 -167 0
-91 -152 -32 -62 -182 -212 -122 0
-226 -17 -197 -62 -137 -182 -77 -47 -107 -167 -122 0
-46 -17 -197 -62 -137 -182 -77 -227 -107 -167 -122 0
-211 -152 -32 -62 -182 -92 -122 0
-106 -17 -197 -62 -137 -182 -77 -227 -47 -167 -122 0
-166 -17 -197 -62 -137 -182 -77 -227 -47 -107 -122 0
-121 -152 -32 -62 -182 -92 -227 -47 -212 -107 -167 0
-17 -198 -138 -78 -228 -48 -108 -168 0
-197 -18 -138 -78 -228 -48 -108 -168 0
-152 -33 -63 -183 -93 -213 -123 0
-32 -153 -63 -183 -93 -213 -123 0
-62 -153 -33 -183 -93 -228 -48 -213 -108 -168 -123 0
-137 -18 -198 -78 -228 -48 -108 -168 0
-182 -153 -33 -63 -93 -228 -48 -213 -108 -168 -123 0
-77 -18 -198 -138 -228 -48 -108 -168 0
-92 -153 -33 -63 -183 -213 -123 0
-227 -18 -198 -63 -138 -183 -78 -48 -108 -168 -123 0
-47 -18 -198 -63 -138 -183 -78 -228 -108 -168 -123 0
-212 -153 -33 -63 -183 -93 -123 0
-107 -18 -198 -63 -138 -183 -78 -228 -48 -168 -123 0
-167 -18 -198 -63 -138 -183 -78 -228 -48 -108 -123 0
-122 -153 -33 -63 -183 -93 -228 -48 -213 -108 -168 0
-18 -199 -139 -79 -229 -49 -109 -169 0
-198 -19 -139 -79 -229 -49 -109 -169 0
-153 -34 -64 -184 -94 -214 -124 0
-33 -154 -64 -184 -94 -214 -124 0
-63 -154 -34 -184 -94 -229 -49 -214 -109 -169 -124 0
-138 -19 -199 -79 -229 -49 -109 -169 0
-183 -154 -34 -64 -94 -229 -49 -214 -109 -169 -124 0
-78 -19 -199 -139 -229 -49 -109 -169 0
-93 -154 -34 -64 -184 -214 -124 0
-228 -19 -199 -64 -139 -184 -79 -49 -109 -169 -124 0
-48 -19 -199 -64 -139 -184 -79 -229 -109 -169 -124 0
-213 -154 -34 -64 -184 -94 -124 0
-108 -19 -199 -64 -139 -184 -79 -229 -49 -169 -124 0
-168 -19 -199 -64 -139 -184 -79 -229 -49 -109 -124 0
-123 -154 -34 -64 -184 -94 -229 -49 -214 -109 -169 0
-19 -200 -140 -80 -230 -50 -110 -170 0
-199 -20 -140 -80 -230 -50 -110 -170 0
-154 -35 -65 -185 -95 -215 -125 0
-34 -155 -65 -185 -95 -215 -125 0
-64 -155 -35 -185 -95 -230 -50 -215 -110 -170 -125 0
-139 -20 -200 -80 -230 -50 -110 -170 0
-184 -155 -35 -65 -95 -230 -50 -215 -110 -170 -125 0
-79 -20 -200 -140 -230 -50 -110 -170 0
-94 -155 -35 -65 -185 -215 -125 0
-229 -20 -200 -65 -140 -185 -80 -50 -110 -170 -125 0
-49 -20 -200 -65 -140 -185 -80 -230 -110 -170 -125 0
-214 -155 -35 -65 -185 -95 -125 0
-109 -20 -200 -65 -140 -185 -80 -230 -50 -170 -125 0
-169 -20 -200 -65 -140 -185 -80 -230 -50 -110 -125 0
-124 -155 -35 -65 -185 -95 -230 -50 -215 -110 -170 0
-20 -201 -141 -81 -231 -51 -111 -171 0
-200 -21 -141 -81 -231 -51 -111 -171 0
-155 -36 -66 -186 -96 -216 -126 0
-35 -156 -66 -186 -96 -216 -126 0
-65 -156 -36 -186 -96 -231 -51 -216 -111 -171 -126 0
-140 -21 -201 -81 -231 -51 -111 -171 0
-185 -156 -36 -66 -96 -231 -51 -216 -111 -171 -126 0
-80 -21 -201 -141 -231 -51 -111 -171 0
-95 -156 -36 -66 -186 -216 -126 0
-230 -21 -201 -66 -141 -186 -81 -51 -111 -171 -126 0
-50 -21 -201 -66 -141 -186 -81 -231 -111 -171 -126 0
-215 -156 -36 -66 -186 -96 -126 0
-110 -21 -201 -66 -141 -186 -81 -231 -51 -171 -126 0
-170 -21 -201 -66 -141 -186 -81 -231 -51 -111 -126 0
-125 -156 -36 -66 -186 -96 -231 -51 -216 -111 -171 0
-21 -202 -142 -82 -232 -52 -112 -172 0
-201 -22 -142 -82 -232 -52 -112 -172 0
-156 -37 -67 -187 -97 -217 -127 0
-36 -157 -67 -187 -97 -217 -127 0
-66 -157 -37 -187 -97 -232 -52 -217 -112 -172 -127 0
-141 -22 -202 -82 -232 -52 -112 -172 0
-186 -157 -37 -67 -97 -232 -52 -217 -112 -172 -127 0
-81 -22 -202 -142 -232 -52 -112 -172 0
-96 -157 -37 -67 -187 -217 -127 0
-231 -22 -202 -67 -142 -187 -82 -52 -112 -172 -127 0
-51 -22 -202 -67 -142 -187 -82 -232 -112 -172 -127 0
-216 -157 -37 -67 -187 -97 -127 0
-111 -22 -202 -67 -142 -187 -82 -232 -52 -172 -127 0
-171 -22 -202 -67 -142 -187 -82 -232 -52 -112 -127 0
-126 -157 -37 -67 -187 -97 -232 -52 -217 -112 -172 0
-22 -203 -143 -83 -233 -53 -113 -173 0
-202 -23 -143 -83 -233 -53 -113 -173 0
-157 -38 -68 -188 -98 -218 -128 0
-37 -158 -68 -188 -98 -218 -128 0
-67 -158 -38 -188 -98 -233 -53 -218 -113 -173 -128 0
-142 -23 -203 -83 -233 -53 -113 -173 0
-187 -158 -38 -68 -98 -233 -53 -218 -113 -173 -128 0
-82 -23 -203 -143 -233 -53 -113 -173 0
-97 -158 -38 -68 -188 -218 -128 0
-232 -23 -203 -68 -143 -188 -83 -53 -113 -173 -128 0
-52 -23 -203 -68 -143 -188 -83 -233 -113 -173 -128 0
-217 -158 -38 -68 -188 -98 -128 0
-112 -23 -203 -68 -143 -188 -83 -233 -53 -173 -128 0
-172 -23 -203 -68 -143 -188 -83 -233 -53 -113 -128 0
-127 -158 -38 -68 -188 -98 -233 -53 -218 -113 -173 0
-23 -204 -144 -84 -234 -54 -114 -174 0
-203 -24 -144 -84 -234 -54 -114 -174 0
-158 -39 -69 -189 -99 -219 -129 0
-38 -159 -69 -189 -99 -219 -129 0
-68 -159 -39 -189 -99 -234 -54 -219 -114 -174 -129 0
-143 -24 -204 -84 -234 -54 -114 -174 0
-188 -159 -39 -69 -99 -234 -54 -219 -114 -174 -129 0
-83 -24 -204 -144 -234 -54 -114 -174 0
-98 -159 -39 -69 -189 -219 -129 0
-233 -24 -204 -69 -144 -189 -84 -54 -114 -174 -129 0
-53 -24 -204 -69 -144 -189 -84 -234 -114 -174 -129 0
-218 -159 -39 -69 -189 -99 -129 0
-113 -24 -204 -69 -144 -189 -84 -234 -54 -174 -129 0
-173 -24 -204 -69 -144 -189 -84 -234 -54 -114 -129 0
-128 -159 -39 -69 -189 -99 -234 -54 -219 -114 -174 0
-24 -205 -145 -85 -235 -55 -115 -175 0
-204 -25 -145 -85 -235 -55 -115 -175 0
-159 -40 -70 -190 -100 -220 -130 0
-39 -160 -70 -190 -100 -220 -130 0
-69 -160 -40 -190 -100 -235 -55 -220 -115 -175 -130 0
-144 -25 -205 -85 -235 -55 -115 -175 0
-189 -160 -40 -70 -100 -235 -55 -220 -115 -175 -130 0
-84 -25 -205 -145 -235 -55 -115 -175 0
-99 -160 -40 -70 -190 -220 -130 0
-234 -25 -205 -70 -145 -190 -85 -55 -115 -175 -130 0
-54 -25 -205 -70 -145 -190 -85 -235 -115 -175 -130 0
-219 -160 -40 -70 -190 -100 -130 0
-114 -25 -205 -70 -145 -190 -85 -235 -55 -175 -130 0
-174 -25 -205 -70 -145 -190 -85 -235 -55 -115 -130 0
-129 -160 -40 -70 -190 -100 -235 -55 -220 -115 -175 0
-25 -206 -146 -86 -236 -56 -116 -176 0
-205 -26 -146 -86 -236 -56 -116 -176 0
-160 -41 -71 -191 -101 -221 -131 0
-40 -161 -71 -191 -101 -221 -131 0
-70 -161 -41 -191 -101 -236 -56 -221 -116 -176 -131 0
-145 -26 -206 -86 -236 -56 -116 -176 0
-190 -161 -41 -71 -101 -236 -56 -221 -116 -176 -131 0
-85 -26 -206 -146 -236 -56 -116 -176 0
-100 -161 -41 -71 -191 -221 -131 0
-235 -26 -206 -71 -146 -191 -86 -56 -116 -176 -131 0
-55 -26 -206 -71 -146 -191 -86 -236 -116 -176 -131 0
-220 -161 -41 -71 -191 -101 -131 0
-115 -26 -206 -71 -146 -191 -86 -236 -56 -176 -131 0
-175 -26 -206 -71 -146 -191 -86 -236 -56 -116 -131 0
-130 -161 -41 -71 -191 -101 -236 -56 -221 -116 -176 0
-26 -207 -147 -87 -237 -57 -117 -177 0
-206 -27 -147 -87 -237 -57 -117 -177 0
-161 -42 -72 -192 -102 -222 -132 0
-41 -162 -72 -192 -102 -222 -132 0
-71 -162 -42 -192 -102 -237 -57 -222 -117 -177 -132 0
-146 -27 -207 -87 -237 -57 -117 -177 0
-191 -162 -42 -72 -102 -237 -57 -222 -117 -177 -132 0
-86 -27 -207 -147 -237 -57 -117 -177 0
-101 -162 -42 -72 -192 -222 -132 0
-236 -27 -207 -72 -147 -192 -87 -57 -117 -177 -132 0
-56 -27 -207 -72 -147 -192 -87 -237 -117 -177 -132 0
-221 -162 -42 -72 -192 -102 -132 0
-116 -27 -207 -72 -147 -192 -87 -237 -57 -177 -132 0
-176 -27 -207 -72 -147 -192 -87 -237 -57 -117 -132 0
-131 -162 -42 -72 -192 -102 -237 -57 -222 -117 -177 0
-27 -208 -148 -88 -238 -58 -118 -178 0
-207 -28 -148 -88 -238 -58 -118 -178 0
-162 -43 -73 -193 -103 -223 -133 0
-42 -163 -73 -193 -103 -223 -133 0
-72 -163 -43 -193 -103 -238 -58 -223 -118 -178 -133 0
-147 -28 -208 -88 -238 -58 -118 -178 0
-192 -163 -43 -73 -103 -238 -58 -223 -118 -178 -133 0
-87 -28 -208 -148 -238 -58 -118 -178 0
-102 -163 -43 -73 -193 -223 -133 0
-237 -28 -208 -73 -148 -193 -88 -58 -118 -178 -133 0
-57 -28 -208 -73 -148 -193 -88 -238 -118 -178 -133 0
-222 -163 -43 -73 -193 -103 -133 0
-117 -28 -208 -73 -148 -193 -88 -238 -58 -178 -133 0
-177 -28 -208 -73 -148 -193 -88 -238 -58 -118 -133 0
-132 -163 -43 -73 -193 -103 -238 -58 -223 -118 -178 0
-28 -209 -149 -89 -239 -59 -119 -179 0
-208 -29 -149 -89 -239 -59 -119 -179 0
-163 -44 -74 -194 -104 -224 -134 0
-43 -164 -74 -194 -104 -224 -134 0
-73 -164 -44 -194 -104 -239 -59 -224 -119 -179 -134 0
-148 -29 -209 -89 -239 -59 -119 -179 0
-193 -164 -44 -74 -104 -239 -59 -224 -119 -179 -134 0
-88 -29 -209 -149 -239 -59 -119 -179 0
-103 -164 -44 -74 -194 -224 -134 0
-238 -29 -209 -74 -149 -194 -89 -59 -119 -179 -134 0
-58 -29 -209 -74 -149 -194 -89 -239 -119 -179 -134 0
-223 -164 -44 -74 -194 -104 -134 0
-118 -29 -209 -74 -149 -194 -89 -239 -59 -179 -134 0
-178 -29 -209 -74 -149 -194 -89 -239 -59 -119 -134 0
-133 -164 -44 -74 -194 -104 -239 -59 -224 -119 -179 0
-29 -210 -150 -90 -240 -60 -120 -180 0
-209 -30 -150 -90 -240 -60 -120 -180 0
-164 -45 -75 -195 -105 -225 -135 0
-44 -165 -75 -195 -105 -225 -135 0
-74 -165 -45 -195 -105 -240 -60 -225 -120 -180 -135 0
-149 -30 -210 -90 -240 -60 -120 -180 0
-194 -165 -45 -75 -105 -240 -60 -225 -120 -180 -135 0
-89 -30 -210 -150 -240 -60 -120 -180 0
-104 -165 -45 -75 -195 -225 -135 0
-239 -30 -210 -75 -150 -195 -90 -60 -120 -180 -135 0
-59 -30 -210 -75 -150 -195 -90 -240 -120 -180 -135 0
-224 -165 -45 -75 -195 -105 -135 0
-119 -30 -210 -75 -150 -195 -90 -240 -60 -180 -135 0
-179 -30 -210 -75 -150 -195 -90 -240 -60 -120 -135 0
-134 -165 -45 -75 -195 -105 -240 -60 -225 -120 -180 0
